c description: Random 3-CNF over 13 variables and 39 clauses
p cnf 13 39
1 -4 -10 0
1 -9 -10 0
6 -10 -11 0
5 11 -12 0
1 4 -7 0
-5 -7 13 0
-4 -11 12 0
-1 5 11 0
-2 6 8 0
9 11 -13 0
2 3 5 0
-4 -5 12 0
7 -8 9 0
-1 2 -9 0
3 -12 -13 0
1 -8 -12 0
4 -10 13 0
4 -12 13 0
-4 -6 8 0
3 -7 11 0
3 -9 -13 0
-1 4 -5 0
-2 8 -11 0
2 5 8 0
-2 9 10 0
1 6 11 0
1 -4 -5 0
-1 5 -6 0
-6 9 -11 0
-2 -4 12 0
1 -5 -11 0
-2 -4 -9 0
4 5 7 0
4 -6 10 0
-6 10 -11 0
-5 6 13 0
2 -3 -4 0
-7 10 11 0
-2 -3 -13 0